(declare-fun var0 () String)
(declare-fun var1 () String)
(declare-fun var2 () String)
(declare-fun var3 () String)
(declare-fun var4 () String)
(declare-fun var5 () String)
(declare-fun var6 () String)
(declare-fun var7 () String)
(declare-fun var8 () String)
(declare-fun var9 () String)
(declare-fun var10 () String)
(declare-fun var11 () String)
(declare-fun var12 () String)
(declare-fun var13 () String)
(declare-fun var14 () String)
(declare-fun var15 () String)
(declare-fun var16 () String)
(declare-fun var17 () String)
(declare-fun var18 () String)
(declare-fun var19 () String)
(declare-fun var20 () String)
(declare-fun var21 () String)
(declare-fun var22 () String)
(declare-fun var23 () String)
(declare-fun var24 () String)
(declare-fun var25 () String)
(declare-fun var26 () String)
(declare-fun var27 () String)
(declare-fun var28 () String)
(declare-fun var29 () String)
(declare-fun var30 () String)
(declare-fun var31 () String)
(declare-fun var32 () String)
(declare-fun var33 () String)
(declare-fun var34 () String)
(declare-fun var35 () String)
(declare-fun var36 () String)
(declare-fun var37 () String)
(declare-fun var38 () String)
(declare-fun var39 () String)
(declare-fun var40 () String)
(declare-fun var41 () String)
(declare-fun var42 () String)
(declare-fun var43 () String)
(declare-fun var44 () String)
(declare-fun var45 () String)
(declare-fun var46 () String)
(declare-fun var47 () String)
(declare-fun var48 () String)
(declare-fun var49 () String)
(declare-fun var50 () String)
(declare-fun var51 () String)
(declare-fun var52 () String)
(declare-fun var53 () String)
(declare-fun var54 () String)
(declare-fun var55 () String)
(declare-fun var56 () String)
(declare-fun var57 () String)
(declare-fun var58 () String)
(declare-fun var59 () String)
(declare-fun var60 () String)
(assert (= var0 (str.++ var1 var2)))
(assert (= var2 (str.++ var3 var4)))
(assert (= var4 (str.++ var5 var6)))
(assert (= var6 (str.++ var7 var8)))
(assert (= var8 (str.++ var9 var10)))
(assert (= var10 (str.++ var11 var12)))
(assert (= var12 (str.++ var13 var14)))
(assert (= var14 (str.++ var15 var16)))
(assert (= var16 (str.++ var17 var18)))
(assert (= var18 (str.++ var19 var20)))
(assert (= var20 (str.++ var21 var22)))
(assert (= var22 (str.++ var23 var24)))
(assert (= var24 (str.++ var25 var26)))
(assert (= var26 (str.++ var27 var28)))
(assert (= var28 (str.++ var29 var30)))
(assert (= var30 (str.++ var31 var32)))
(assert (= var32 (str.++ var33 var34)))
(assert (= var34 (str.++ var35 var36)))
(assert (= var36 (str.++ var37 var38)))
(assert (= var38 (str.++ var39 var40)))
(assert (= var40 (str.++ var41 var42)))
(assert (= var42 (str.++ var43 var44)))
(assert (= var44 (str.++ var45 var46)))
(assert (= var46 (str.++ var47 var48)))
(assert (= var48 (str.++ var49 var50)))
(assert (= var50 (str.++ var51 var52)))
(assert (= var52 (str.++ var53 var54)))
(assert (= var54 (str.++ var55 var56)))
(assert (= var56 (str.++ var57 var58)))
(assert (= var58 (str.++ var59 var60)))
(assert (= var0 "solution"))
(assert (= "B" (str.at var17 568)))
(assert (= "$" (str.at var16 171)))
(assert (= "F" (str.at var30 416)))
(assert (= "4" (str.at var28 16)))
(assert (= "{" (str.at var0 418)))
(assert (= "?" (str.at var42 668)))
(assert (= "+" (str.at var36 513)))
(assert (= "Z" (str.at var14 716)))
(assert (= "x" (str.at var39 733)))
(assert (= "&" (str.at var56 296)))
(assert (= "O" (str.at var13 723)))
(assert (= "x" (str.at var23 462)))
(assert (= """" (str.at var18 147)))
(assert (= "," (str.at var53 147)))
(assert (= "h" (str.at var15 988)))
(assert (= "@" (str.at var52 321)))
(assert (= "B" (str.at var33 647)))
(assert (= "l" (str.at var36 923)))
(assert (= "y" (str.at var1 438)))
(assert (= "4" (str.at var42 971)))
(assert (= "I" (str.at var38 484)))
(assert (= "w" (str.at var35 576)))
(assert (= "<" (str.at var18 735)))
(assert (= "D" (str.at var27 42)))
(assert (= "G" (str.at var5 738)))
(assert (= "[" (str.at var44 260)))
(assert (= "L" (str.at var13 783)))
(assert (= "R" (str.at var30 577)))
(assert (= "b" (str.at var4 923)))
(assert (= "n" (str.at var26 476)))
(assert (= "u" (str.at var39 418)))
(assert (= "r" (str.at var58 262)))
(assert (= "\\" (str.at var5 220)))
(assert (= "M" (str.at var3 24)))
(assert (= "2" (str.at var21 43)))
(assert (= "\\" (str.at var9 672)))
(assert (= "X" (str.at var11 521)))
(assert (= "b" (str.at var53 554)))
(assert (= "x" (str.at var23 262)))
(assert (= "N" (str.at var57 710)))
(assert (= "V" (str.at var23 250)))
(assert (= "w" (str.at var57 213)))
(assert (= "q" (str.at var20 464)))
(assert (= """" (str.at var28 379)))
(assert (= "m" (str.at var36 467)))
(assert (= "^" (str.at var49 681)))
(assert (= "Z" (str.at var26 850)))
(assert (= "S" (str.at var46 838)))
(assert (= "Z" (str.at var10 21)))
(assert (= "I" (str.at var12 755)))
(assert (= "E" (str.at var12 797)))
(assert (= "X" (str.at var47 147)))
(assert (= "*" (str.at var38 178)))
(assert (= "3" (str.at var30 210)))
(assert (= "U" (str.at var27 969)))
(assert (= "P" (str.at var60 882)))
(assert (= "j" (str.at var14 449)))
(assert (= "3" (str.at var8 451)))
(assert (= "h" (str.at var3 266)))
(assert (= "v" (str.at var28 193)))
(assert (= "7" (str.at var32 418)))
(assert (= ";" (str.at var33 389)))
(assert (= "X" (str.at var41 495)))
(assert (= "<" (str.at var6 565)))
(assert (= "z" (str.at var48 610)))
(assert (= "X" (str.at var8 907)))
(assert (= "?" (str.at var27 204)))
(assert (= "4" (str.at var45 944)))
(assert (= "H" (str.at var51 644)))
(assert (= "w" (str.at var53 868)))
(assert (= "M" (str.at var41 36)))
(assert (= "z" (str.at var10 520)))
(assert (= "}" (str.at var32 160)))
(assert (= ">" (str.at var30 900)))
(assert (= "d" (str.at var13 40)))
(assert (= "H" (str.at var2 191)))
(assert (= "M" (str.at var45 561)))
(assert (= "<" (str.at var18 929)))
(assert (= "b" (str.at var1 176)))
(assert (= "A" (str.at var46 823)))
(assert (= "v" (str.at var1 506)))
(assert (= "Z" (str.at var20 252)))
(assert (= "O" (str.at var45 95)))
(assert (= "?" (str.at var3 144)))
(assert (= "b" (str.at var58 166)))
(assert (= "E" (str.at var40 960)))
(assert (= "h" (str.at var33 363)))
(assert (= "8" (str.at var36 406)))
(assert (= "U" (str.at var27 671)))
(assert (= ")" (str.at var60 171)))
(assert (= "#" (str.at var46 872)))
(assert (= "!" (str.at var57 858)))
(assert (= "{" (str.at var55 961)))
(assert (= "f" (str.at var35 337)))
(assert (= "<" (str.at var38 598)))
(assert (= "\\" (str.at var21 548)))
(assert (= "'" (str.at var24 272)))
(assert (= "d" (str.at var58 796)))
(assert (= "N" (str.at var21 946)))
(assert (= "}" (str.at var35 783)))
(assert (= "N" (str.at var47 430)))
(assert (= "2" (str.at var59 731)))
(assert (= "^" (str.at var12 219)))
(assert (= "q" (str.at var50 598)))
(assert (= "A" (str.at var46 902)))
(assert (= "K" (str.at var34 409)))
(assert (= "T" (str.at var41 907)))
(assert (= "=" (str.at var32 664)))
(assert (= "e" (str.at var23 99)))
(assert (= ";" (str.at var30 670)))
(assert (= "5" (str.at var49 603)))
(assert (= "}" (str.at var14 535)))
(assert (= "?" (str.at var48 809)))
(assert (= "7" (str.at var16 784)))
(assert (= "@" (str.at var15 422)))
(assert (= "G" (str.at var17 34)))
(assert (= "k" (str.at var59 729)))
(assert (= "]" (str.at var23 276)))
(assert (= "_" (str.at var29 373)))
(assert (= "T" (str.at var60 358)))
(assert (= "/" (str.at var34 191)))
(assert (= "L" (str.at var14 220)))
(assert (= "X" (str.at var57 879)))
(assert (= "?" (str.at var33 246)))
(assert (= "y" (str.at var29 225)))
(assert (= "s" (str.at var27 298)))
(assert (= "m" (str.at var21 922)))
(assert (= "w" (str.at var12 646)))
(assert (= "Z" (str.at var48 670)))
(assert (= "4" (str.at var23 764)))
(assert (= "B" (str.at var13 547)))
(assert (= "*" (str.at var24 819)))
(assert (= "Q" (str.at var18 54)))
(assert (= "j" (str.at var1 627)))
(assert (= "v" (str.at var48 281)))
(assert (= "Z" (str.at var31 402)))
(assert (= "Y" (str.at var40 516)))
(assert (= "P" (str.at var3 184)))
(assert (= "w" (str.at var18 737)))
(assert (= "A" (str.at var10 752)))
(assert (= "7" (str.at var31 761)))
(assert (= "x" (str.at var3 652)))
(assert (= "n" (str.at var57 773)))
(assert (= "%" (str.at var24 485)))
(assert (= "t" (str.at var20 112)))
(assert (= "!" (str.at var50 230)))
(assert (= "5" (str.at var48 767)))
(assert (= "u" (str.at var49 882)))
(assert (= "]" (str.at var9 449)))
(assert (= "z" (str.at var6 552)))
(assert (= "3" (str.at var49 821)))
(assert (= "X" (str.at var16 253)))
(assert (= "0" (str.at var57 312)))
(assert (= "q" (str.at var48 372)))
(assert (= "[" (str.at var13 908)))
(assert (= "K" (str.at var19 986)))
(assert (= "O" (str.at var54 178)))
(assert (= "}" (str.at var28 638)))
(assert (= "h" (str.at var56 77)))
(assert (= "}" (str.at var46 285)))
(assert (= "a" (str.at var15 592)))
(assert (= ")" (str.at var58 704)))
(assert (= "2" (str.at var46 409)))
(assert (= "H" (str.at var10 310)))
(assert (= "F" (str.at var3 937)))
(assert (= "=" (str.at var14 15)))
(assert (= "`" (str.at var21 166)))
(assert (= "[" (str.at var29 273)))
(assert (= "o" (str.at var60 312)))
(assert (= "+" (str.at var25 816)))
(assert (= "m" (str.at var52 662)))
(assert (= "c" (str.at var7 689)))
(assert (= "W" (str.at var11 154)))
(assert (= "v" (str.at var10 659)))
(assert (= "t" (str.at var45 970)))
(assert (= "9" (str.at var33 306)))
(assert (= "," (str.at var7 133)))
(assert (= "c" (str.at var2 174)))
(assert (= ">" (str.at var23 819)))
(assert (= "|" (str.at var5 403)))
(assert (= "E" (str.at var0 996)))
(assert (= "_" (str.at var22 811)))
(assert (= "u" (str.at var54 617)))
(assert (= "m" (str.at var33 997)))
(assert (= "5" (str.at var34 291)))
(assert (= "<" (str.at var12 810)))
(assert (= "5" (str.at var57 271)))
(assert (= "5" (str.at var5 51)))
(assert (= "y" (str.at var26 330)))
(assert (= "$" (str.at var58 609)))
(assert (= "Y" (str.at var33 733)))
(assert (= "C" (str.at var53 421)))
(assert (= "3" (str.at var28 146)))
(assert (= "i" (str.at var51 207)))
(assert (= "m" (str.at var14 568)))
(assert (= "N" (str.at var13 867)))
(assert (= "~" (str.at var1 927)))
(assert (= "u" (str.at var56 734)))
(assert (= "e" (str.at var33 229)))
(assert (= "D" (str.at var11 898)))
(assert (= "m" (str.at var28 168)))
(assert (= "g" (str.at var42 633)))
(assert (= "?" (str.at var49 273)))
(assert (= "R" (str.at var57 470)))
(assert (= "s" (str.at var17 279)))
(assert (= "e" (str.at var10 4)))
(assert (= "[" (str.at var46 985)))
(assert (= "Y" (str.at var57 225)))
(assert (= ":" (str.at var44 882)))
(assert (= "I" (str.at var27 558)))
(assert (= "]" (str.at var0 266)))
(assert (= "<" (str.at var30 298)))
(assert (= "," (str.at var49 979)))
(assert (= "k" (str.at var14 711)))
(assert (= "Q" (str.at var51 60)))
(assert (= "I" (str.at var9 640)))
(assert (= "|" (str.at var60 504)))
(assert (= ")" (str.at var55 669)))
(assert (= "j" (str.at var47 941)))
(assert (= "}" (str.at var8 841)))
(assert (= "q" (str.at var47 970)))
(assert (= "0" (str.at var23 839)))
(assert (= "J" (str.at var58 776)))
(assert (= "e" (str.at var59 313)))
(assert (= "(" (str.at var45 869)))
(assert (= "T" (str.at var21 985)))
(assert (= "'" (str.at var41 417)))
(assert (= "P" (str.at var16 178)))
(assert (= "d" (str.at var41 851)))
(assert (= "o" (str.at var5 28)))
(assert (= "*" (str.at var37 636)))
(assert (= "T" (str.at var10 499)))
(assert (= "v" (str.at var49 677)))
(assert (= "3" (str.at var28 680)))
(assert (= "!" (str.at var50 57)))
(assert (= "." (str.at var46 103)))
(assert (= "U" (str.at var9 101)))
(assert (= "K" (str.at var29 669)))
(assert (= "_" (str.at var34 639)))
(assert (= ":" (str.at var11 864)))
(assert (= "`" (str.at var50 462)))
(assert (= "f" (str.at var56 186)))
(assert (= "{" (str.at var43 886)))
(assert (= "{" (str.at var8 220)))
(assert (= "\\" (str.at var37 278)))
(assert (= "V" (str.at var28 310)))
(assert (= "w" (str.at var35 482)))
(assert (= "_" (str.at var13 242)))
(assert (= "W" (str.at var41 258)))
(assert (= "C" (str.at var45 401)))
(assert (= "H" (str.at var33 392)))
(assert (= "^" (str.at var35 603)))
(assert (= "t" (str.at var45 922)))
(assert (= "q" (str.at var9 831)))
(assert (= "H" (str.at var11 743)))
(assert (= "$" (str.at var3 951)))
(assert (= "J" (str.at var48 853)))
(assert (= "f" (str.at var19 398)))
(assert (= ">" (str.at var24 189)))
(assert (= "B" (str.at var22 941)))
(assert (= """" (str.at var10 251)))
(assert (= "+" (str.at var23 401)))
(assert (= """" (str.at var40 708)))
(assert (= "'" (str.at var24 876)))
(assert (= ":" (str.at var2 437)))
(assert (= "b" (str.at var38 374)))
(assert (= "a" (str.at var24 146)))
(assert (= "B" (str.at var4 630)))
(assert (= "7" (str.at var25 444)))
(assert (= "D" (str.at var20 890)))
(assert (= "&" (str.at var50 330)))
(assert (= "I" (str.at var38 70)))
(assert (= "c" (str.at var21 643)))
(assert (= "'" (str.at var49 164)))
(assert (= "a" (str.at var4 748)))
(assert (= "e" (str.at var43 465)))
(assert (= "C" (str.at var54 7)))
(assert (= "L" (str.at var47 177)))
(assert (= "q" (str.at var13 487)))
(assert (= "," (str.at var27 43)))
(assert (= "i" (str.at var56 96)))
(assert (= ";" (str.at var43 499)))
(assert (= "2" (str.at var59 444)))
(assert (= "\\" (str.at var46 597)))
(assert (= ";" (str.at var29 458)))
(assert (= "u" (str.at var49 513)))
(assert (= "M" (str.at var14 488)))
(assert (= "r" (str.at var36 114)))
(assert (= "9" (str.at var18 728)))
(assert (= ">" (str.at var41 92)))
(assert (= "L" (str.at var9 707)))
(assert (= "[" (str.at var44 796)))
(assert (= "_" (str.at var37 535)))
(assert (= "\\" (str.at var26 797)))
(assert (= "C" (str.at var40 862)))
(assert (= "-" (str.at var17 234)))
(assert (= "1" (str.at var56 62)))
(assert (= "k" (str.at var43 767)))
(assert (= "A" (str.at var14 699)))
(assert (= "u" (str.at var15 969)))
(assert (= "b" (str.at var4 93)))
(assert (= "%" (str.at var0 162)))
(assert (= "s" (str.at var18 656)))
(assert (= "<" (str.at var31 542)))
(assert (= "7" (str.at var15 563)))
(assert (= "/" (str.at var24 695)))
(assert (= "=" (str.at var31 786)))
(assert (= "|" (str.at var23 38)))
(assert (= "7" (str.at var22 118)))
(assert (= "c" (str.at var44 231)))
(assert (= "9" (str.at var10 86)))
(assert (= "Y" (str.at var7 625)))
(assert (= "}" (str.at var16 345)))
(assert (= "=" (str.at var28 99)))
(assert (= "&" (str.at var12 196)))
(assert (= "@" (str.at var10 785)))
(assert (= "+" (str.at var34 603)))
(assert (= "{" (str.at var6 541)))
(assert (= "p" (str.at var26 260)))
(assert (= "@" (str.at var28 864)))
(assert (= "y" (str.at var51 466)))
(assert (= "q" (str.at var0 609)))
(assert (= "{" (str.at var15 338)))
(assert (= "a" (str.at var36 237)))
(assert (= "1" (str.at var38 628)))
(assert (= "t" (str.at var50 491)))
(assert (= "2" (str.at var8 909)))
(assert (= ";" (str.at var46 341)))
(assert (= "F" (str.at var52 579)))
(assert (= "j" (str.at var60 675)))
(assert (= "4" (str.at var32 583)))
(assert (= "e" (str.at var48 847)))
(assert (= "w" (str.at var30 417)))
(assert (= "w" (str.at var51 242)))
(assert (= "c" (str.at var60 826)))
(assert (= "'" (str.at var13 651)))
(assert (= "L" (str.at var35 485)))
(assert (= "u" (str.at var57 567)))
(assert (= "e" (str.at var51 646)))
(assert (= "s" (str.at var5 631)))
(assert (= "{" (str.at var12 277)))
(assert (= "{" (str.at var12 729)))
(assert (= "h" (str.at var4 936)))
(assert (= "Z" (str.at var59 267)))
(assert (= "R" (str.at var10 311)))
(assert (= "f" (str.at var24 931)))
(assert (= ")" (str.at var26 681)))
(assert (= "]" (str.at var15 510)))
(assert (= "R" (str.at var4 150)))
(assert (= "P" (str.at var33 935)))
(assert (= "x" (str.at var44 585)))
(assert (= "~" (str.at var38 621)))
(assert (= "o" (str.at var43 159)))
(assert (= "_" (str.at var28 883)))
(assert (= "W" (str.at var28 746)))
(assert (= "*" (str.at var2 916)))
(assert (= "B" (str.at var42 436)))
(assert (= ">" (str.at var38 858)))
(assert (= "2" (str.at var33 99)))
(assert (= "h" (str.at var37 599)))
(assert (= "T" (str.at var33 692)))
(assert (= "A" (str.at var52 170)))
(assert (= "%" (str.at var13 846)))
(assert (= "%" (str.at var28 319)))
(assert (= "." (str.at var23 437)))
(assert (= "X" (str.at var13 165)))
(assert (= "<" (str.at var25 844)))
(assert (= "a" (str.at var18 885)))
(assert (= "|" (str.at var0 765)))
(assert (= "y" (str.at var45 700)))
(assert (= "X" (str.at var4 418)))
(assert (= """" (str.at var42 10)))
(assert (= "b" (str.at var44 124)))
(assert (= "5" (str.at var52 500)))
(assert (= "~" (str.at var6 746)))
(assert (= ":" (str.at var46 40)))
(assert (= "m" (str.at var28 751)))
(assert (= "h" (str.at var13 913)))
(assert (= "(" (str.at var58 961)))
(assert (= "$" (str.at var36 749)))
(assert (= ">" (str.at var40 930)))
(assert (= "k" (str.at var31 636)))
(assert (= "*" (str.at var44 752)))
(assert (= "R" (str.at var31 66)))
(assert (= "[" (str.at var1 466)))
(assert (= "F" (str.at var40 506)))
(assert (= ";" (str.at var30 641)))
(assert (= "V" (str.at var0 133)))
(assert (= "&" (str.at var47 644)))
(assert (= "H" (str.at var60 900)))
(assert (= "I" (str.at var26 305)))
(assert (= "K" (str.at var55 85)))
(assert (= "m" (str.at var17 285)))
(assert (= "6" (str.at var54 421)))
(assert (= "3" (str.at var11 314)))
(assert (= "C" (str.at var24 451)))
(assert (= "g" (str.at var30 744)))
(assert (= "4" (str.at var50 847)))
(assert (= "A" (str.at var43 392)))
(assert (= "1" (str.at var1 828)))
(assert (= "R" (str.at var6 621)))
(check-sat)